c Generated map
c Size: 10 * 10, weights in range: 1 to 10, walls: True, with ratio 0.05
c dim 6 of 6
c
p sp 100 163
c graph contains 100 nodes and 163 arcs
c
a 1 11 4
a 11 1 4
a 1 2 6
a 2 1 6
a 2 12 4
a 12 2 4
a 2 3 2
a 3 2 2
a 3 13 5
a 13 3 5
a 3 4 2
a 4 3 2
a 4 14 2
a 14 4 2
a 4 5 2
a 5 4 2
a 5 15 2
a 15 5 2
a 5 6 2
a 6 5 2
a 6 16 1
a 16 6 1
a 6 7 9
a 7 6 9
a 7 17 4
a 17 7 4
a 7 8 2
a 8 7 2
a 8 18 6
a 18 8 6
a 8 9 9
a 9 8 9
a 9 19 5
a 19 9 5
a 9 10 5
a 10 9 5
a 10 20 9
a 20 10 9
a 11 21 6
a 21 11 6
a 11 12 8
a 12 11 8
a 12 22 1
a 22 12 1
a 12 13 1
a 13 12 1
a 13 23 2
a 23 13 2
a 13 14 7
a 14 13 7
a 14 24 4
a 24 14 4
a 14 15 1
a 15 14 1
a 15 25 8
a 25 15 8
a 15 16 4
a 16 15 4
a 16 26 4
a 26 16 4
a 16 17 1
a 17 16 1
a 17 18 8
a 18 17 8
a 18 28 4
a 28 18 4
a 18 19 2
a 19 18 2
a 19 29 10
a 29 19 10
a 19 20 7
a 20 19 7
a 20 30 10
a 30 20 10
a 21 31 3
a 31 21 3
a 21 22 5
a 22 21 5
a 22 32 9
a 32 22 9
a 22 23 7
a 23 22 7
a 23 33 10
a 33 23 10
a 23 24 1
a 24 23 1
a 24 34 9
a 34 24 9
a 24 25 10
a 25 24 10
a 25 35 1
a 35 25 1
a 25 26 6
a 26 25 6
a 26 36 7
a 36 26 7
a 28 38 1
a 38 28 1
a 28 29 5
a 29 28 5
a 29 39 1
a 39 29 1
a 29 30 4
a 30 29 4
a 30 40 9
a 40 30 9
a 31 41 6
a 41 31 6
a 31 32 4
a 32 31 4
a 32 42 2
a 42 32 2
a 32 33 4
a 33 32 4
a 33 43 1
a 43 33 1
a 33 34 7
a 34 33 7
a 34 44 8
a 44 34 8
a 34 35 9
a 35 34 9
a 35 45 5
a 45 35 5
a 35 36 1
a 36 35 1
a 36 46 9
a 46 36 9
a 38 48 4
a 48 38 4
a 38 39 8
a 39 38 8
a 39 49 4
a 49 39 4
a 39 40 2
a 40 39 2
a 40 50 1
a 50 40 1
a 41 51 4
a 51 41 4
a 41 42 10
a 42 41 10
a 42 52 7
a 52 42 7
a 42 43 7
a 43 42 7
a 43 53 2
a 53 43 2
a 43 44 9
a 44 43 9
a 44 54 10
a 54 44 10
a 44 45 7
a 45 44 7
a 45 55 9
a 55 45 9
a 45 46 6
a 46 45 6
a 46 56 8
a 56 46 8
a 46 47 8
a 47 46 8
a 47 57 2
a 57 47 2
a 47 48 1
a 48 47 1
a 48 58 10
a 58 48 10
a 48 49 5
a 49 48 5
a 49 59 1
a 59 49 1
a 49 50 1
a 50 49 1
a 50 60 1
a 60 50 1
a 51 61 4
a 61 51 4
a 51 52 8
a 52 51 8
a 52 62 4
a 62 52 4
a 52 53 3
a 53 52 3
a 53 63 7
a 63 53 7
a 53 54 5
a 54 53 5
a 54 55 1
a 55 54 1
a 55 65 1
a 65 55 1
a 55 56 7
a 56 55 7
a 56 66 7
a 66 56 7
a 56 57 6
a 57 56 6
a 57 67 8
a 67 57 8
a 57 58 1
a 58 57 1
a 58 68 3
a 68 58 3
a 58 59 4
a 59 58 4
a 59 69 2
a 69 59 2
a 59 60 9
a 60 59 9
a 60 70 5
a 70 60 5
a 61 71 4
a 71 61 4
a 61 62 2
a 62 61 2
a 62 63 7
a 63 62 7
a 63 73 6
a 73 63 6
a 65 75 1
a 75 65 1
a 65 66 6
a 66 65 6
a 66 76 8
a 76 66 8
a 66 67 1
a 67 66 1
a 67 77 8
a 77 67 8
a 67 68 10
a 68 67 10
a 68 78 10
a 78 68 10
a 68 69 1
a 69 68 1
a 69 79 8
a 79 69 8
a 69 70 3
a 70 69 3
a 70 80 3
a 80 70 3
a 71 81 6
a 81 71 6
a 73 83 7
a 83 73 7
a 73 74 10
a 74 73 10
a 74 84 6
a 84 74 6
a 74 75 8
a 75 74 8
a 75 85 9
a 85 75 9
a 75 76 2
a 76 75 2
a 76 86 2
a 86 76 2
a 76 77 7
a 77 76 7
a 77 87 6
a 87 77 6
a 77 78 5
a 78 77 5
a 78 88 8
a 88 78 8
a 78 79 9
a 79 78 9
a 79 89 2
a 89 79 2
a 79 80 2
a 80 79 2
a 80 90 9
a 90 80 9
a 81 82 4
a 82 81 4
a 82 92 9
a 92 82 9
a 82 83 5
a 83 82 5
a 83 93 9
a 93 83 9
a 83 84 9
a 84 83 9
a 84 94 4
a 94 84 4
a 84 85 3
a 85 84 3
a 85 95 1
a 95 85 1
a 85 86 4
a 86 85 4
a 86 96 7
a 96 86 7
a 86 87 1
a 87 86 1
a 87 97 6
a 97 87 6
a 87 88 6
a 88 87 6
a 88 98 6
a 98 88 6
a 88 89 4
a 89 88 4
a 89 99 4
a 99 89 4
a 89 90 8
a 90 89 8
a 90 100 1
a 100 90 1
a 92 93 2
a 93 92 2
a 93 94 4
a 94 93 4
a 94 95 9
a 95 94 9
a 95 96 10
a 96 95 10
a 96 97 3
a 97 96 3
a 97 98 1
a 98 97 1
a 98 99 9
a 99 98 9
a 99 100 8
a 100 99 8
